
Gurobi 5.6.0 (win64) logging started 02/22/14 19:14:13


Gurobi 5.6.0 (win64) logging started 02/22/14 19:14:53


Gurobi 5.6.0 (win64) logging started 02/22/14 19:15:18


Gurobi 5.6.0 (win64) logging started 02/22/14 19:16:11


Gurobi 5.6.0 (win64) logging started 02/22/14 19:17:49


Gurobi 5.6.0 (win64) logging started 02/22/14 19:18:34


Gurobi 5.6.0 (win64) logging started 02/22/14 19:19:11


Gurobi 5.6.0 (win64) logging started 02/22/14 19:19:40


Gurobi 5.6.0 (win64) logging started 02/22/14 19:19:56


Gurobi 5.6.0 (win64) logging started 02/22/14 19:20:24


Gurobi 5.6.0 (win64) logging started 02/22/14 19:22:08


Gurobi 5.6.0 (win64) logging started 02/22/14 19:23:47


Gurobi 5.6.0 (win64) logging started 02/22/14 19:56:31


Gurobi 5.6.0 (win64) logging started 02/23/14 17:35:54


Gurobi 5.6.0 (win64) logging started 05/03/14 17:49:36


Gurobi 5.6.0 (win64) logging started 05/03/14 17:50:37


Gurobi 5.6.0 (win64) logging started 05/03/14 17:50:53


Gurobi 5.6.0 (win64) logging started 05/03/14 17:51:11


Gurobi 5.6.0 (win64) logging started 05/03/14 17:51:16


Gurobi 5.6.0 (win64) logging started 05/03/14 17:52:11


Gurobi 5.6.0 (win64) logging started 05/03/14 18:50:31


Gurobi 5.6.0 (win64) logging started 05/03/14 20:30:53


Gurobi 5.6.0 (win64) logging started 05/03/14 20:39:40


Gurobi 5.6.0 (win64) logging started 05/03/14 20:41:28


Gurobi 5.6.0 (win64) logging started 05/03/14 20:43:12


Gurobi 5.6.0 (win64) logging started 05/03/14 20:44:45


Gurobi 5.6.0 (win64) logging started 05/03/14 20:45:10


Gurobi 5.6.0 (win64) logging started 05/03/14 20:49:55

